certificates/rado_a11_c239_N26.drat
-24 22 -26 0
22 -26 0
d -24 22 -26 0
-22 -26 0
d -22 -23 -26 0
-26 0
23 -22 0
-23 -22 0
d -23 -20 -22 0
-22 0
19 0
25 0
23 0
-9 0
-11 0
-5 0
6 0
12 0
8 0
14 0
2 0
-20 0
-21 0
-16 0
1 0
7 0
17 0
3 0
24 0
18 0
13 0
-15 0
0
